100
128
63
20
64
64
51
9
11
10
8
51
33
44
44
36
10
62
60
56
55
12
39
20
20
48
23
17
55
32
46
60
56
17
22
40
61
33
56
51
26
1
1
25
26
59
19
37
38
17
32
20
64
30
34
53
54
19
27
24
25
52
17
63
34
31
52
47
53
22
61
48
24
45
62
29
29
64
64
56
33
39
21
19
19
49
59
57
34
44
58
37
63
32
40
32
56
33
26
59
31
38